(set-info :source |printed by MathSAT|)
(declare-fun |!{$(in_main#0)<N>}| () Int)
(declare-fun |!{$(in_main#0)<N>}.next| () Int)
(declare-fun |!{$(in_main#0)<i>}| () Int)
(declare-fun |!{$(in_main#0)<i>}.next| () Int)
(declare-fun |!{$(in_main#0)<x>}| () Int)
(declare-fun |!{$(in_main#0)<x>}.next| () Int)
(declare-fun |!{$(in_main#0)<A.1>}| () (Array Int Int))
(declare-fun |!{$(in_main#0)<A.1>}.next| () (Array Int Int))
(declare-fun |!{$(in_main#0)<$(in___VERIFIER_nondet_int#0)<h#<__VERIFIER_nondet_int.return>>>}| () Int)
(declare-fun |!{$(in_main#0)<$(in___VERIFIER_nondet_int#1)<h#<__VERIFIER_nondet_int.return>>>}| () Int)
(declare-fun !pc () Int)
(declare-fun !pc.next () Int)
(declare-fun |%{$(in_main#0)<x>}#1| () Int)
(declare-fun |%{$(in_main#0)<A.1>}#1| () (Array Int Int))
(define-fun .def_30 () Int (! !pc :next !pc.next))
(define-fun .def_33 () Bool (! (= .def_30 2) :init true))
(define-fun .def_152 () Bool (= .def_30 26))
(define-fun .def_135 () Bool (= !pc.next 47))
(define-fun .def_155 () Bool (and .def_135 .def_152))
(define-fun .def_8 () Int (! |!{$(in_main#0)<N>}| :next |!{$(in_main#0)<N>}.next|))
(define-fun .def_74 () Bool (= .def_8 |!{$(in_main#0)<N>}.next|))
(define-fun .def_45 () Bool (= |!{$(in_main#0)<i>}.next| 0))
(define-fun .def_148 () Bool (and .def_45 .def_74))
(define-fun .def_12 () Int (! |!{$(in_main#0)<x>}| :next |!{$(in_main#0)<x>}.next|))
(define-fun .def_78 () Bool (= .def_12 |!{$(in_main#0)<x>}.next|))
(define-fun .def_149 () Bool (and .def_78 .def_148))
(define-fun .def_14 () (Array Int Int) (! |!{$(in_main#0)<A.1>}| :next |!{$(in_main#0)<A.1>}.next|))
(define-fun .def_80 () Bool (= .def_14 |!{$(in_main#0)<A.1>}.next|))
(define-fun .def_150 () Bool (and .def_80 .def_149))
(define-fun .def_10 () Int (! |!{$(in_main#0)<i>}| :next |!{$(in_main#0)<i>}.next|))
(define-fun .def_142 () Bool (<= .def_8 .def_10))
(define-fun .def_151 () Bool (and .def_142 .def_150))
(define-fun .def_156 () Bool (and .def_151 .def_155))
(define-fun .def_52 () Bool (= !pc.next 26))
(define-fun .def_153 () Bool (and .def_52 .def_152))
(define-fun .def_144 () (Array Int Int) (store .def_14 .def_10 |!{$(in_main#0)<$(in___VERIFIER_nondet_int#1)<h#<__VERIFIER_nondet_int.return>>>}|))
(define-fun .def_145 () Bool (= |!{$(in_main#0)<A.1>}.next| .def_144))
(define-fun .def_121 () Int (* (- 1) |!{$(in_main#0)<i>}.next|))
(define-fun .def_122 () Int (+ .def_10 .def_121))
(define-fun .def_123 () Bool (= .def_122 (- 1)))
(define-fun .def_124 () Bool (and .def_74 .def_123))
(define-fun .def_125 () Bool (and .def_78 .def_124))
(define-fun .def_146 () Bool (and .def_125 .def_145))
(define-fun .def_143 () Bool (not .def_142))
(define-fun .def_147 () Bool (and .def_143 .def_146))
(define-fun .def_154 () Bool (and .def_147 .def_153))
(define-fun .def_157 () Bool (or .def_154 .def_156))
(define-fun .def_134 () Bool (= .def_30 47))
(define-fun .def_101 () Bool (= !pc.next 61))
(define-fun .def_138 () Bool (and .def_101 .def_134))
(define-fun .def_129 () Bool (= |!{$(in_main#0)<x>}.next| 0))
(define-fun .def_76 () Bool (= .def_10 |!{$(in_main#0)<i>}.next|))
(define-fun .def_83 () Bool (and .def_74 .def_76))
(define-fun .def_130 () Bool (and .def_83 .def_129))
(define-fun .def_131 () Bool (and .def_80 .def_130))
(define-fun .def_56 () Real (* (/ 1 2) (to_real .def_8)))
(define-fun .def_57 () Int (to_int .def_56))
(define-fun .def_112 () Bool (<= .def_57 .def_10))
(define-fun .def_132 () Bool (and .def_112 .def_131))
(define-fun .def_139 () Bool (and .def_132 .def_138))
(define-fun .def_136 () Bool (and .def_134 .def_135))
(define-fun .def_114 () Int (* (- 1) .def_10))
(define-fun .def_115 () Int (+ .def_8 .def_114))
(define-fun .def_117 () Int (+ .def_115 (- 1)))
(define-fun .def_118 () Int (select .def_14 .def_117))
(define-fun .def_119 () (Array Int Int) (store .def_14 .def_10 .def_118))
(define-fun .def_126 () Bool (= |!{$(in_main#0)<A.1>}.next| .def_119))
(define-fun .def_127 () Bool (and .def_125 .def_126))
(define-fun .def_113 () Bool (not .def_112))
(define-fun .def_128 () Bool (and .def_113 .def_127))
(define-fun .def_137 () Bool (and .def_128 .def_136))
(define-fun .def_140 () Bool (or .def_137 .def_139))
(define-fun .def_105 () Bool (= !pc.next 0))
(define-fun .def_96 () Bool (= .def_30 61))
(define-fun .def_106 () Bool (and .def_96 .def_105))
(define-fun .def_58 () Bool (<= .def_57 .def_12))
(define-fun .def_91 () Bool (and .def_58 .def_74))
(define-fun .def_92 () Bool (and .def_76 .def_91))
(define-fun .def_93 () Bool (and .def_78 .def_92))
(define-fun .def_94 () Bool (and .def_80 .def_93))
(define-fun .def_107 () Bool (and .def_94 .def_106))
(define-fun .def_102 () Bool (and .def_96 .def_101))
(define-fun .def_84 () Int (* (- 1) |!{$(in_main#0)<x>}.next|))
(define-fun .def_85 () Int (+ .def_12 .def_84))
(define-fun .def_86 () Bool (= .def_85 (- 1)))
(define-fun .def_87 () Bool (and .def_83 .def_86))
(define-fun .def_88 () Bool (and .def_80 .def_87))
(define-fun .def_62 () Int (* (- 1) .def_12))
(define-fun .def_63 () Int (+ .def_8 .def_62))
(define-fun .def_65 () Int (+ .def_63 (- 1)))
(define-fun .def_66 () Int (select .def_14 .def_65))
(define-fun .def_60 () Int (select .def_14 .def_12))
(define-fun .def_67 () Bool (= .def_60 .def_66))
(define-fun .def_68 () Int (ite .def_67 1 0))
(define-fun .def_69 () Bool (= .def_68 0))
(define-fun .def_70 () Bool (not .def_69))
(define-fun .def_89 () Bool (and .def_70 .def_88))
(define-fun .def_59 () Bool (not .def_58))
(define-fun .def_90 () Bool (and .def_59 .def_89))
(define-fun .def_103 () Bool (and .def_90 .def_102))
(define-fun .def_98 () Bool (= !pc.next 81))
(define-fun .def_99 () Bool (and .def_96 .def_98))
(define-fun .def_75 () Bool (and .def_69 .def_74))
(define-fun .def_77 () Bool (and .def_75 .def_76))
(define-fun .def_79 () Bool (and .def_77 .def_78))
(define-fun .def_81 () Bool (and .def_79 .def_80))
(define-fun .def_82 () Bool (and .def_59 .def_81))
(define-fun .def_100 () Bool (and .def_82 .def_99))
(define-fun .def_104 () Bool (or .def_100 .def_103))
(define-fun .def_108 () Bool (or .def_104 .def_107))
(define-fun .def_53 () Bool (and .def_33 .def_52))
(define-fun .def_49 () Bool (= |!{$(in_main#0)<A.1>}.next| |%{$(in_main#0)<A.1>}#1|))
(define-fun .def_47 () Bool (= |!{$(in_main#0)<x>}.next| |%{$(in_main#0)<x>}#1|))
(define-fun .def_44 () Bool (= |!{$(in_main#0)<N>}.next| |!{$(in_main#0)<$(in___VERIFIER_nondet_int#0)<h#<__VERIFIER_nondet_int.return>>>}|))
(define-fun .def_46 () Bool (and .def_44 .def_45))
(define-fun .def_48 () Bool (and .def_46 .def_47))
(define-fun .def_50 () Bool (and .def_48 .def_49))
(define-fun .def_54 () Bool (and .def_50 .def_53))
(define-fun .def_109 () Bool (or .def_54 .def_108))
(define-fun .def_141 () Bool (or .def_109 .def_140))
(define-fun .def_158 () Bool (! (or .def_141 .def_157) :trans true))
(define-fun .def_110 () Bool (= .def_30 81))
(define-fun .def_159 () Bool (! (not .def_110) :invar-property 0 :invar-property-name ||))
(assert true)
